a
1
4 0 0
0 4 0
0 0 4
H
2
D
0 0 0
0.5 0.5 0.5
